Selected objective sense:  MINIMIZE
Selected objective  name:  OBJ
Selected RHS        name:  RHS1
Selected bound      name:  BND1
CPXPARAM_Preprocessing_Presolve                  0
CPXPARAM_LPMethod                                4
CPXPARAM_Threads                                 1
CPXPARAM_SolutionType                            2
CPXPARAM_TimeLimit                               3600
Tried aggregator 0 times.
Reduced presolve eliminated 166 rows and 166 columns.
Reduced LP has 16242 rows, 95679 columns, and 2164859 nonzeros.
Presolve time = 0.51 sec. (256.69 ticks)
Parallel mode: none, using 1 thread for barrier
Number of nonzeros in lower triangle of A*A' = 368473
Using Approximate Minimum Degree ordering
Total time for automatic ordering = 0.05 sec. (83.26 ticks)
Summary statistics for Cholesky factor:
  Rows in Factor            = 16242
  Integer space required    = 383887
  Total non-zeros in factor = 384968
  Total FP ops to factor    = 9248520
 Itn      Primal Obj        Dual Obj  Prim Inf Upper Inf  Dual Inf Inf Ratio
   0   2.8363510e+08  -1.3055505e+07  8.29e+08  0.00e+00  4.08e+06  1.00e+00
   1   5.8830461e+07  -3.5621993e+06  1.38e+08  1.20e-11  2.65e+06  7.01e-03
   2   3.5090469e+07  -7.5821982e+06  8.93e+07  2.29e-11  5.33e+05  8.94e-03
   3   1.2775216e+07  -7.4911011e+06  3.57e+07  2.70e-11  5.24e+05  8.71e-03
   4   3.8463775e+06  -2.6050592e+06  1.14e+07  1.41e-11  1.67e+05  2.58e-03
   5   1.4907867e+05  -1.9725946e+06  1.28e+06  1.70e-11  1.21e+05  4.56e-03
   6   3.8524778e+04  -6.8415051e+05  1.49e+05  2.18e-11  4.28e+04  1.99e-02
   7   2.5926573e+04  -7.9637267e+04  2.18e+04  2.19e-11  6.25e+03  1.93e-01
   8   2.3700409e+04   1.2853552e+04  1.09e+02  1.30e-11  6.56e+02  1.87e+00
   9   2.3512962e+04   1.8823118e+04  5.61e+01  1.06e-11  2.82e+02  6.68e+00
  10   2.3321264e+04   2.2246927e+04  1.52e+01  1.31e-11  6.38e+01  3.47e+01
  11   2.3235441e+04   2.2781331e+04  5.68e+00  1.54e-11  2.74e+01  9.62e+01
  12   2.3217050e+04   2.3038715e+04  4.38e+00  1.58e-11  8.55e+00  5.11e+02
  13   2.3200217e+04   2.3080514e+04  3.48e+00  2.46e-11  4.82e+00  9.16e+02
  14   2.3198823e+04   2.3099397e+04  3.40e+00  2.75e-11  3.28e+00  1.32e+03
  15   2.3194760e+04   2.3101258e+04  3.18e+00  1.66e-11  3.11e+00  1.38e+03
  16   2.3188419e+04   2.3120161e+04  2.83e+00  3.80e-11  1.48e+00  2.57e+03
  17   2.3178709e+04   2.3127232e+04  2.30e+00  2.05e-11  8.28e-01  3.77e+03
  18   2.3176759e+04   2.3135201e+04  2.19e+00  2.92e-11  2.51e-01  6.96e+03
  19   2.3169645e+04   2.3135665e+04  1.79e+00  4.05e-11  2.05e-01  7.41e+03
  20   2.3159510e+04   2.3138790e+04  1.17e+00  6.26e-11  6.89e-02  1.17e+04
  21   2.3155366e+04   2.3141001e+04  9.00e-01  4.77e-11  1.58e-02  2.02e+04
  22   2.3154737e+04   2.3141643e+04  8.58e-01  7.50e-11  3.96e-03  2.68e+04
  23   2.3152098e+04   2.3142215e+04  6.67e-01  3.41e-11  2.17e-03  4.00e+04
  24   2.3151658e+04   2.3142264e+04  6.37e-01  3.27e-11  5.42e-04  3.90e+04
  25   2.3147887e+04   2.3142361e+04  3.58e-01  3.19e-11  4.73e-04  4.27e+04
  26   2.3147683e+04   2.3142817e+04  3.43e-01  1.76e-11  1.20e-04  6.95e+04
  27   2.3147273e+04   2.3142855e+04  3.14e-01  2.33e-11  9.19e-05  7.47e+04
  28   2.3146375e+04   2.3143028e+04  2.45e-01  1.69e-11  4.47e-05  1.12e+05
  29   2.3146317e+04   2.3143047e+04  2.40e-01  3.10e-11  1.12e-05  1.15e+05
  30   2.3144175e+04   2.3143060e+04  8.17e-02  2.26e-11  5.19e-06  1.17e+05
  31   2.3143976e+04   2.3143200e+04  6.17e-02  3.05e-11  2.79e-06  1.98e+05
  32   2.3143946e+04   2.3143290e+04  5.87e-02  2.62e-11  1.21e-06  3.62e+05
  33   2.3143934e+04   2.3143324e+04  5.76e-02  2.87e-11  4.15e-07  5.46e+05
  34   2.3143934e+04   2.3143326e+04  5.76e-02  4.61e-11  3.65e-07  5.59e+05
  35   2.3143934e+04   2.3143324e+04  5.75e-02  1.89e-11  3.47e-07  5.82e+05
  36   2.3143721e+04   2.3143339e+04  3.53e-02  6.72e-11  2.60e-07  7.45e+05
  37   2.3143719e+04   2.3143344e+04  3.51e-02  5.19e-11  1.66e-07  8.52e+05
  38   2.3143642e+04   2.3143357e+04  2.75e-02  4.59e-11  4.15e-08  1.03e+06
  39   2.3143619e+04   2.3143366e+04  2.52e-02  2.27e-11  1.22e-08  1.34e+06
  40   2.3143619e+04   2.3143367e+04  2.51e-02  4.72e-11  1.16e-08  1.35e+06
  41   2.3143619e+04   2.3143367e+04  2.51e-02  4.93e-11  1.13e-08  1.35e+06
  42   2.3143618e+04   2.3143367e+04  2.51e-02  9.45e-11  1.08e-08  1.36e+06
  43   2.3143618e+04   2.3143365e+04  2.51e-02  1.01e-10  1.08e-08  1.36e+06
  44   2.3143527e+04   2.3143374e+04  1.56e-02  8.41e-11  3.38e-09  1.90e+06
  45   2.3143527e+04   2.3143373e+04  1.56e-02  6.30e-11  3.28e-09  1.93e+06
  46   2.3143494e+04   2.3143377e+04  1.21e-02  6.88e-11  1.53e-09  2.29e+06
  47   2.3143494e+04   2.3143376e+04  1.21e-02  7.44e-11  1.54e-09  2.30e+06
  48   2.3143464e+04   2.3143381e+04  8.72e-03  1.04e-10  7.37e-10  2.93e+06
  49   2.3143464e+04   2.3143380e+04  8.71e-03  4.99e-11  7.15e-10  2.99e+06
  50   2.3143463e+04   2.3143382e+04  8.66e-03  4.22e-11  5.32e-10  3.44e+06
  51   2.3143441e+04   2.3143385e+04  6.11e-03  8.69e-11  2.91e-10  4.10e+06
  52   2.3143441e+04   2.3143385e+04  6.11e-03  5.52e-11  4.04e-10  4.14e+06
  53   2.3143426e+04   2.3143386e+04  4.24e-03  3.71e-11  2.79e-10  4.61e+06
  54   2.3143425e+04   2.3143386e+04  4.21e-03  2.62e-11  3.39e-10  4.62e+06
  55   2.3143425e+04   2.3143386e+04  4.21e-03  2.28e-11  3.34e-10  4.67e+06
  56   2.3143422e+04   2.3143388e+04  3.84e-03  2.36e-11  2.42e-10  6.21e+06
  57   2.3143422e+04   2.3143388e+04  3.84e-03  5.89e-11  2.58e-10  6.23e+06
  58   2.3143419e+04   2.3143388e+04  3.41e-03  2.66e-11  2.88e-10  6.38e+06
  59   2.3143419e+04   2.3143388e+04  3.41e-03  4.04e-11  2.89e-10  6.39e+06
  60   2.3143419e+04   2.3143388e+04  3.41e-03  2.93e-11  2.56e-10  6.41e+06
  61   2.3143419e+04   2.3143388e+04  3.41e-03  2.90e-11  2.06e-10  6.41e+06
  62   2.3143419e+04   2.3143388e+04  3.37e-03  2.68e-11  2.10e-10  6.87e+06
  63   2.3143419e+04   2.3143388e+04  3.36e-03  2.63e-11  1.84e-10  7.00e+06
  64   2.3143415e+04   2.3143391e+04  2.92e-03  3.99e-11  9.19e-11  1.36e+07
  65   2.3143414e+04   2.3143391e+04  2.81e-03  2.88e-11  9.19e-11  1.38e+07
  66   2.3143414e+04   2.3143391e+04  2.81e-03  4.02e-11  1.05e-10  1.38e+07
  67   2.3143413e+04   2.3143391e+04  2.64e-03  3.24e-11  9.12e-11  1.57e+07
  68   2.3143413e+04   2.3143392e+04  2.61e-03  3.47e-11  7.80e-11  1.67e+07
  69   2.3143412e+04   2.3143392e+04  2.55e-03  3.53e-11  8.25e-11  1.69e+07
  70   2.3143412e+04   2.3143392e+04  2.55e-03  4.17e-11  9.62e-11  1.69e+07
  71   2.3143412e+04   2.3143392e+04  2.54e-03  3.53e-11  1.08e-10  1.71e+07
  72   2.3143412e+04   2.3143392e+04  2.54e-03  3.83e-11  1.17e-10  1.71e+07
  73   2.3143410e+04   2.3143392e+04  2.26e-03  4.06e-11  1.01e-10  1.81e+07
  74   2.3143410e+04   2.3143392e+04  2.25e-03  5.35e-11  1.11e-10  1.82e+07
  75   2.3143409e+04   2.3143392e+04  2.16e-03  4.23e-11  9.70e-11  1.87e+07
  76   2.3143407e+04   2.3143392e+04  1.92e-03  5.58e-11  1.03e-10  2.13e+07
  77   2.3143407e+04   2.3143392e+04  1.92e-03  6.36e-11  8.26e-11  2.14e+07
  78   2.3143407e+04   2.3143392e+04  1.89e-03  6.69e-11  9.02e-11  2.34e+07
  79   2.3143404e+04   2.3143392e+04  1.49e-03  4.02e-11  8.56e-11  2.52e+07
  80   2.3143404e+04   2.3143392e+04  1.49e-03  5.98e-11  9.77e-11  2.52e+07
  81   2.3143404e+04   2.3143393e+04  1.48e-03  3.62e-11  8.76e-11  2.84e+07
  82   2.3143404e+04   2.3143393e+04  1.48e-03  3.66e-11  1.11e-10  2.85e+07
  83   2.3143404e+04   2.3143393e+04  1.45e-03  3.93e-11  7.78e-11  2.92e+07
  84   2.3143404e+04   2.3143393e+04  1.45e-03  4.72e-11  8.42e-11  2.92e+07
  85   2.3143404e+04   2.3143393e+04  1.45e-03  5.11e-11  7.59e-11  3.03e+07
  86   2.3143404e+04   2.3143393e+04  1.45e-03  5.30e-11  8.71e-11  3.03e+07
  87   2.3143404e+04   2.3143393e+04  1.45e-03  4.72e-11  9.57e-11  3.03e+07
  88   2.3143404e+04   2.3143393e+04  1.45e-03  5.19e-11  8.82e-11  3.04e+07
  89   2.3143404e+04   2.3143393e+04  1.43e-03  4.92e-11  1.33e-10  3.05e+07
  90   2.3143396e+04   2.3143393e+04  3.58e-04  5.68e-11  8.39e-11  3.32e+07
  91   2.3143395e+04   2.3143393e+04  1.83e-04  1.92e-11  7.13e-11  4.99e+07
  92   2.3143395e+04   2.3143394e+04  1.75e-04  3.03e-11  8.26e-11  2.26e+08
  93   2.3143394e+04   2.3143394e+04  1.02e-04  7.89e-11  1.36e-10  3.22e+08
Barrier time = 10.83 sec. (17798.40 ticks)

Total time on 1 threads = 10.83 sec. (17798.40 ticks)
Solve time: 10.832551588
Barrier iterations: 93
